************************************************************************
file with basedata            : md346_.bas
initial value random generator: 165472618
************************************************************************
projects                      :  1
jobs (incl. supersource/sink ):  22
horizon                       :  162
RESOURCES
  - renewable                 :  2   R
  - nonrenewable              :  2   N
  - doubly constrained        :  0   D
************************************************************************
PROJECT INFORMATION:
pronr.  #jobs rel.date duedate tardcost  MPM-Time
    1     20      0       23       16       23
************************************************************************
PRECEDENCE RELATIONS:
jobnr.    #modes  #successors   successors
   1        1          3           2   3   4
   2        3          3           7   8  15
   3        3          3           6  10  15
   4        3          2           5   7
   5        3          3          12  13  17
   6        3          2           7  12
   7        3          1          17
   8        3          3           9  12  16
   9        3          1          10
  10        3          1          11
  11        3          2          14  20
  12        3          2          14  18
  13        3          3          15  19  20
  14        3          2          19  21
  15        3          1          18
  16        3          2          17  20
  17        3          2          18  19
  18        3          1          21
  19        3          1          22
  20        3          1          22
  21        3          1          22
  22        1          0        
************************************************************************
REQUESTS/DURATIONS:
jobnr. mode duration  R 1  R 2  N 1  N 2
------------------------------------------------------------------------
  1      1     0       0    0    0    0
  2      1     6       3    0    7    0
         2     7       1    0    0   10
         3    10       0    9    4    0
  3      1     3       6    0    6    0
         2     7       5    0    5    0
         3    10       5    0    4    0
  4      1     1       6    0    0    9
         2     7       5    0    8    0
         3     8       0    6    8    0
  5      1     1       0    5    7    0
         2     2       0    4    0    1
         3     7       0    2    6    0
  6      1     4       6    0    4    0
         2     7       1    0    0    5
         3     7       1    0    3    0
  7      1     4       0    7    2    0
         2     7       5    0    0    6
         3     7       0    6    2    0
  8      1     1       0    6    0    8
         2     4       0    3    0    6
         3    10       6    0    0    6
  9      1     1       0    9    0    8
         2     4       5    0    0    6
         3     8       0    7    8    0
 10      1     2       8    0    0    3
         2     2       7    0    4    0
         3     4       4    0    0    3
 11      1     3      10    0    0    8
         2     4       4    0    3    0
         3     4       0    7    5    0
 12      1     2       7    0    0    8
         2     8       6    0    0    7
         3     9       6    0    0    2
 13      1     1       0    8    6    0
         2     6       2    0    6    0
         3     9       0    8    4    0
 14      1     1       5    0    0    7
         2     4       2    0    0    2
         3     9       0    4    6    0
 15      1     3       8    0    4    0
         2     6       6    0    0    9
         3     9       0    3    0    8
 16      1     1       0    1    6    0
         2     3       8    0    4    0
         3     4       0    1    0    4
 17      1     6       0    8    0    8
         2     7       0    7    0    7
         3     7       4    0    3    0
 18      1     5       0    8    9    0
         2     9       3    0    5    0
         3    10       2    0    4    0
 19      1     5       0   10    0    6
         2     6       5    0    7    0
         3    10       4    0    6    0
 20      1     8       4    0    5    0
         2     9       4    0    0    4
         3    10       4    0    3    0
 21      1     1       7    0    0    9
         2     6       5    0    0    9
         3    10       2    0    2    0
 22      1     0       0    0    0    0
************************************************************************
RESOURCEAVAILABILITIES:
  R 1  R 2  N 1  N 2
   13   11   99  113
************************************************************************
MAXIMAL LAGS:
from  to  type  delay
    1   12   ES      0
    1    2   ES      0
    2   12   ES      0
    1    3   ES      0
    3   12   ES      0
    1    4   ES      0
    4   12   ES      0
    1    5   ES      0
    5   12   ES      0
    1    6   ES      0
    6   12   ES      0
    1    7   ES      0
    7   12   ES      0
    1    8   ES      0
    8   12   ES      0
    1    9   ES      0
    9   12   ES      0
    1   10   ES      0
   10   12   ES      0
    1   11   ES      0
   11   12   ES      0
    1   12   ES      0
    2    7   SS      0
    2    7   SE     -2
    2    7   ES      3
    2    7   EE      8
    2    8   SS     10
    2    8   SE      3
    2    8   ES     -4
    2    8   EE     11
    2   15   SS     -3
    2   15   SE      7
    2   15   ES     -9
    2   15   EE     11
    3    6   SS      1
    3    6   SE    -12
    3    6   ES      7
    3    6   EE      9
    3   10   SS     -6
    3   10   SE      0
    3   10   ES     -1
    3   10   EE      7
    3   15   SS     -1
    3   15   SE     -8
    3   15   ES    -11
    3   15   EE    -10
    4    5   SS     -3
    4    5   SE      7
    4    5   ES    -10
    4    5   EE     -9
    4    7   SS      4
    4    7   SE      8
    4    7   ES     12
    4    7   EE      6
    5   13   SS     -3
    5   13   SE     -9
    5   13   ES      5
    5   13   EE     -3
    5   17   SS     -5
    5   17   SE     -5
   17    5   SE      0
    5   17   ES      0
    5   17   EE      4
    6    7   SS      3
    6    7   SE     -2
    6    7   ES    -12
    6    7   EE      6
    7   17   SS     -8
    7   17   SE     12
    7   17   ES      1
    7   17   EE     -6
    8    9   SS     -7
    8    9   SE     11
    8    9   ES     -7
    8    9   EE     -6
    8   16   SS      7
    8   16   SE      7
    8   16   ES      4
    8   16   EE     -8
    9   10   SS    -10
    9   10   SE     -5
    9   10   ES      2
    9   10   EE     -4
   10   11   SS     -2
   10   11   SE     -2
   10   11   ES      1
   10   11   EE    -10
   11   14   SS    -10
   11   14   SE     -4
   11   14   ES    -11
   11   14   EE     10
   11   20   SS     11
   11   20   SE     11
   11   20   ES     -3
   11   20   EE     -8
   12   14   SS      4
   12   14   SE      5
   12   14   ES      1
   12   14   EE     11
   12   18   SS    -11
   12   18   SE     -1
   12   18   ES      8
   12   18   EE    -12
   13   15   SS     12
   13   15   SE     -2
   13   15   ES     -5
   13   15   EE      3
   13   19   SS      0
   13   19   SE      1
   13   19   ES      1
   13   19   EE     11
   13   20   SS    -11
   13   20   SE      4
   13   20   ES     10
   13   20   EE     -9
   14   19   SS     -9
   14   19   SE     11
   14   19   ES     -8
   14   19   EE      1
   14   21   SS     12
   14   21   SE    -12
   14   21   ES    -11
   14   21   EE     -6
   15   18   SS    -11
   15   18   SE      4
   15   18   ES     -6
   15   18   EE     -1
   16   17   SS      0
   16   17   SE      0
   16   17   ES      7
   16   17   EE    -10
   16   20   SS     12
   16   20   SE    -12
   16   20   ES      0
   16   20   EE     -8
   17   18   SS      9
   17   18   SE      2
   17   18   ES    -10
   17   18   EE     -2
   17   19   SS     11
   17   19   SE     -6
   17   19   ES     -9
   17   19   EE     -7
   18   21   SS     12
   18   21   SE     -6
   18   21   ES     -4
   18   21   EE     -2
   19   22   SS     -1
   19   22   SE    -11
   19   22   ES      1
   19   22   EE      4
   20   22   SS      5
   20   22   SE     -7
   20   22   ES      1
   20   22   EE      6
   21   22   SS     -9
   21   22   SE      3
   21   22   ES      8
   21   22   EE      3
************************************************************************
